59 59
50 7
11 13
59 28
25 2
27 15
53 11
1 5
31 24
35 22
41 8
58 25
14 25
40 18
39 12
4 21
46 9
2 7
5 17
47 29
24 4
19 2
30 20
17 30
38 9
45 28
56 17
16 16
7 6
13 18
9 4
12 13
54 10
36 23
37 5
48 27
8 19
32 19
33 26
26 14
43 23
10 11
6 1
22 29
55 20
57 26
15 27
23 6
3 21
42 24
20 15
52 12
29 3
44 22
28 14
21 3
49 8
18 1
51 16
34 10
